(set-logic ALL)
(declare-const options String)
(assert (not (str.contains options "respectcase")))
(assert (not (str.contains options "symbols")))
(assert (not (str.contains options "datatype")))
(assert (not (str.contains options "missing")))
(assert (not (str.contains options "gap")))
(assert (not (str.contains options "equate")))
(assert (not (str.contains options "matchchar")))
(assert (not (str.contains options "labels")))
(assert (str.contains options "transpose"))
(check-sat)
(get-value (options))
